# Generated by ConicBenchmarkUtilities.jl
VER
2

OBJSENSE
MIN

VAR
111 1
F 111

INT
20
12
13
14
15
16
17
18
19
20
21
42
46
54
58
73
74
76
80
99
100

CON
294 282
L= 1
L= 1
L= 1
L= 1
L= 1
L= 1
L= 1
L= 1
L= 1
EXP 3
L+ 1
L+ 1
EXP 3
L+ 1
L+ 1
L= 1
L= 1
L= 1
L= 1
L= 1
L= 1
L= 1
L= 1
L+ 1
L+ 1
L+ 1
L+ 1
L+ 1
L+ 1
L+ 1
L+ 1
EXP 3
L+ 1
L+ 1
EXP 3
L+ 1
L+ 1
L= 1
L= 1
L= 1
L= 1
L= 1
L= 1
L= 1
L= 1
L+ 1
L+ 1
L+ 1
L+ 1
L+ 1
L+ 1
L+ 1
L+ 1
L= 1
L= 1
L= 1
L= 1
L= 1
L= 1
L= 1
L= 1
L= 1
L= 1
L+ 1
L+ 1
L+ 1
L+ 1
L+ 1
L+ 1
L+ 1
L+ 1
EXP 3
L+ 1
L+ 1
EXP 3
L+ 1
L+ 1
L= 1
L= 1
L= 1
L= 1
L= 1
L= 1
L= 1
L= 1
L+ 1
L+ 1
L+ 1
L+ 1
L+ 1
L+ 1
L+ 1
L+ 1
L= 1
L= 1
L= 1
L= 1
L= 1
L= 1
L= 1
L= 1
L= 1
L= 1
L= 1
L= 1
L= 1
L= 1
L= 1
L= 1
L+ 1
L+ 1
L+ 1
L+ 1
L+ 1
L+ 1
L+ 1
L+ 1
L+ 1
L+ 1
L+ 1
L+ 1
L= 1
L= 1
L= 1
L= 1
L= 1
L= 1
L= 1
L= 1
L= 1
L= 1
L+ 1
L+ 1
L+ 1
L+ 1
L+ 1
L+ 1
L+ 1
L+ 1
L+ 1
L+ 1
L+ 1
L+ 1
L+ 1
L+ 1
L+ 1
L+ 1
L+ 1
L+ 1
L+ 1
L+ 1
L+ 1
L+ 1
L+ 1
L+ 1
L+ 1
L= 1
L= 1
L+ 1
L+ 1
L+ 1
L+ 1
L+ 1
L+ 1
L+ 1
L+ 1
L+ 1
L+ 1
L+ 1
L+ 1
L+ 1
L+ 1
L+ 1
L+ 1
L+ 1
L+ 1
L+ 1
L+ 1
L+ 1
L+ 1
L+ 1
L+ 1
L+ 1
L+ 1
L+ 1
L+ 1
L+ 1
L+ 1
L+ 1
L+ 1
L+ 1
L+ 1
L+ 1
L+ 1
L+ 1
L+ 1
L+ 1
L+ 1
L+ 1
L+ 1
L+ 1
L+ 1
L+ 1
L+ 1
L+ 1
L+ 1
L+ 1
L+ 1
L+ 1
L+ 1
L+ 1
L+ 1
L+ 1
L+ 1
L+ 1
L+ 1
L+ 1
L+ 1
L+ 1
L+ 1
L+ 1
L+ 1
L+ 1
L+ 1
L+ 1
L+ 1
L+ 1
L+ 1
L+ 1
L+ 1
L+ 1
L+ 1
L+ 1
L+ 1
L+ 1
L+ 1
L+ 1
L+ 1
L+ 1
L+ 1
L+ 1
L+ 1
L+ 1
L+ 1
L+ 1
L+ 1
L+ 1
L+ 1
L+ 1
L+ 1
L+ 1
L+ 1
L+ 1
L+ 1
L+ 1
L+ 1
L+ 1
L+ 1
L+ 1
L+ 1
L+ 1
L+ 1
L+ 1
L+ 1
L+ 1
L+ 1
L+ 1
L+ 1
L+ 1
L+ 1
L+ 1
L+ 1
L+ 1
L+ 1
L+ 1
L+ 1
L+ 1
L+ 1
L+ 1
L+ 1
L+ 1
L+ 1

OBJACOORD
1
22 -1.0

ACOORD
500
0 0 -1.0
1 0 1.0
176 0 1.0
177 0 -1.0
0 1 -1.0
2 1 1.0
178 1 1.0
179 1 -1.0
0 2 5.0
5 2 -1.0
190 2 1.0
0 3 10.0
6 3 -1.0
191 3 1.0
0 4 -2.0
117 4 1.0
200 4 1.0
201 4 -1.0
0 5 -1.0
118 5 1.0
202 5 1.0
203 5 -1.0
0 6 80.0
69 6 1.0
204 6 1.0
0 7 90.0
70 7 1.0
205 7 1.0
0 8 285.0
95 8 1.0
206 8 1.0
0 9 390.0
96 9 1.0
207 9 1.0
0 10 290.0
119 10 1.0
208 10 1.0
0 11 405.0
120 11 1.0
209 11 1.0
0 12 -5.0
133 12 5.0
148 12 -1.0
149 12 -1.0
158 12 1.0
274 12 1.0
275 12 -1.0
0 13 -4.0
134 13 4.0
148 13 -1.0
149 13 -1.0
159 13 1.0
276 13 1.0
277 13 -1.0
0 14 -8.0
135 14 8.0
150 14 -1.0
151 14 -1.0
160 14 1.0
278 14 1.0
279 14 -1.0
0 15 -7.0
136 15 7.0
150 15 -1.0
151 15 -1.0
161 15 1.0
280 15 1.0
281 15 -1.0
0 16 -6.0
137 16 6.0
152 16 -1.0
153 16 -1.0
162 16 1.0
282 16 1.0
283 16 -1.0
0 17 -9.0
138 17 9.0
152 17 -1.0
153 17 -1.0
163 17 1.0
284 17 1.0
285 17 -1.0
0 18 -10.0
139 18 10.0
154 18 -1.0
155 18 -1.0
164 18 1.0
286 18 1.0
287 18 -1.0
0 19 -9.0
140 19 9.0
154 19 -1.0
155 19 -1.0
165 19 1.0
288 19 1.0
289 19 -1.0
0 20 -6.0
141 20 6.0
156 20 -1.0
157 20 -1.0
166 20 1.0
290 20 1.0
291 20 -1.0
0 21 -10.0
142 21 10.0
156 21 -1.0
157 21 -1.0
167 21 1.0
292 21 1.0
293 21 -1.0
0 22 -1.0
1 23 -1.0
23 23 1.0
180 23 1.0
1 24 -1.0
49 24 1.0
182 24 1.0
2 25 -1.0
24 25 1.0
181 25 1.0
2 26 -1.0
50 26 1.0
183 26 1.0
3 27 -1.0
25 27 1.0
184 27 1.0
3 28 -1.0
51 28 1.0
186 28 1.0
3 29 1.0
5 29 1.0
188 29 1.0
4 30 -1.0
26 30 1.0
185 30 1.0
4 31 -1.0
52 31 1.0
187 31 1.0
4 32 1.0
6 32 1.0
189 32 1.0
5 33 -1.0
7 33 1.0
192 33 1.0
6 34 -1.0
8 34 1.0
193 34 1.0
7 35 -1.0
67 35 1.0
194 35 1.0
7 36 -1.0
93 36 1.0
196 36 1.0
7 37 -1.0
115 37 1.0
198 37 1.0
8 38 -1.0
68 38 1.0
195 38 1.0
8 39 -1.0
94 39 1.0
197 39 1.0
8 40 -1.0
116 40 1.0
199 40 1.0
11 41 -1.0
13 41 -1.0
9 42 1.0
10 42 1.0
12 42 1.0
27 42 40.0
29 42 -40.0
31 42 3.71357206670431
33 42 -3.71357206670431
143 42 -1.0
158 42 -1.0
159 42 1.0
168 42 1.0
170 42 1.0
172 42 1.0
174 42 1.0
254 42 1.0
255 42 -1.0
9 43 1.0
12 43 1.0
23 43 -1.0
27 43 -1.0
210 43 1.0
13 44 -1.0
25 44 -1.0
31 44 -1.0
218 44 1.0
16 45 -1.0
18 45 -1.0
14 46 1.0
15 46 1.0
17 46 1.0
28 46 40.0
30 46 -40.0
32 46 3.71357206670431
34 46 -3.71357206670431
143 46 1.0
159 46 -1.0
169 46 1.0
171 46 1.0
173 46 1.0
175 46 1.0
256 46 1.0
257 46 -1.0
14 47 1.0
17 47 1.0
24 47 -1.0
28 47 -1.0
211 47 1.0
18 48 -1.0
26 48 -1.0
32 48 -1.0
219 48 1.0
19 49 1.0
23 49 -1.0
29 49 -1.0
212 49 1.0
20 50 1.0
24 50 -1.0
30 50 -1.0
213 50 1.0
21 51 1.0
25 51 -1.0
33 51 -1.0
220 51 1.0
22 52 1.0
26 52 -1.0
34 52 -1.0
221 52 1.0
37 53 -1.0
39 53 -1.2
35 54 1.0
36 54 1.0
38 54 1.0
53 54 40.0
55 54 -40.0
57 54 4.45628648004517
59 54 -4.45628648004517
144 54 -1.0
160 54 -1.0
161 54 1.0
168 54 1.0
170 54 1.0
172 54 1.0
174 54 1.0
258 54 1.0
259 54 -1.0
35 55 1.0
38 55 1.0
49 55 -1.0
53 55 -1.0
214 55 1.0
39 56 -1.0
51 56 -1.0
57 56 -1.0
222 56 1.0
42 57 -1.0
44 57 -1.2
40 58 1.0
41 58 1.0
43 58 1.0
54 58 40.0
56 58 -40.0
58 58 4.45628648004517
60 58 -4.45628648004517
144 58 1.0
161 58 -1.0
169 58 1.0
171 58 1.0
173 58 1.0
175 58 1.0
260 58 1.0
261 58 -1.0
40 59 1.0
43 59 1.0
50 59 -1.0
54 59 -1.0
215 59 1.0
44 60 -1.0
52 60 -1.0
58 60 -1.0
223 60 1.0
45 61 1.0
49 61 -1.0
55 61 -1.0
216 61 1.0
46 62 1.0
50 62 -1.0
56 62 -1.0
217 62 1.0
47 63 1.0
51 63 -1.0
59 63 -1.0
224 63 1.0
48 64 1.0
52 64 -1.0
60 64 -1.0
225 64 1.0
61 65 -0.75
67 65 -1.0
71 65 -1.0
226 65 1.0
61 66 1.0
69 66 -1.0
75 66 -1.0
242 66 1.0
62 67 -0.75
68 67 -1.0
72 67 -1.0
227 67 1.0
62 68 1.0
70 68 -1.0
76 68 -1.0
243 68 1.0
63 69 1.0
67 69 -1.0
73 69 -1.0
228 69 1.0
64 70 1.0
68 70 -1.0
74 70 -1.0
229 70 1.0
65 71 1.0
69 71 -1.0
77 71 -1.0
244 71 1.0
66 72 1.0
70 72 -1.0
78 72 -1.0
245 72 1.0
71 73 4.45628648004517
73 73 -4.45628648004517
75 73 3.34221486003388
77 73 -3.34221486003388
145 73 -1.0
162 73 -1.0
163 73 1.0
170 73 -1.0
262 73 1.0
263 73 -1.0
72 74 4.45628648004517
74 74 -4.45628648004517
76 74 3.34221486003388
78 74 -3.34221486003388
145 74 1.0
163 74 -1.0
171 74 -1.0
264 74 1.0
265 74 -1.0
81 75 -1.0
83 75 -1.5
79 76 1.0
80 76 1.0
82 76 1.0
97 76 4.45628648004517
99 76 -4.45628648004517
101 76 2.54515263975353
103 76 -2.54515263975353
146 76 -1.0
164 76 -1.0
165 76 1.0
172 76 -1.0
266 76 1.0
267 76 -1.0
79 77 1.0
82 77 1.0
93 77 -1.0
97 77 -1.0
230 77 1.0
83 78 -1.0
95 78 -1.0
101 78 -1.0
246 78 1.0
86 79 -1.0
88 79 -1.5
84 80 1.0
85 80 1.0
87 80 1.0
98 80 4.45628648004517
100 80 -4.45628648004517
102 80 2.54515263975353
104 80 -2.54515263975353
146 80 1.0
165 80 -1.0
173 80 -1.0
268 80 1.0
269 80 -1.0
84 81 1.0
87 81 1.0
94 81 -1.0
98 81 -1.0
231 81 1.0
88 82 -1.0
96 82 -1.0
102 82 -1.0
247 82 1.0
89 83 1.0
93 83 -1.0
99 83 -1.0
232 83 1.0
90 84 1.0
94 84 -1.0
100 84 -1.0
233 84 1.0
91 85 1.0
95 85 -1.0
103 85 -1.0
248 85 1.0
92 86 1.0
96 86 -1.0
104 86 -1.0
249 86 1.0
105 87 -1.0
115 87 -1.0
121 87 -1.0
234 87 1.0
105 88 1.0
107 88 1.0
119 88 -1.0
129 88 -1.0
250 88 1.0
106 89 -1.0
116 89 -1.0
122 89 -1.0
235 89 1.0
106 90 1.0
108 90 1.0
120 90 -1.0
130 90 -1.0
251 90 1.0
107 91 -0.5
117 91 -1.0
125 91 -1.0
238 91 1.0
108 92 -0.5
118 92 -1.0
126 92 -1.0
239 92 1.0
109 93 1.0
115 93 -1.0
123 93 -1.0
236 93 1.0
110 94 1.0
116 94 -1.0
124 94 -1.0
237 94 1.0
111 95 1.0
117 95 -1.0
127 95 -1.0
240 95 1.0
112 96 1.0
118 96 -1.0
128 96 -1.0
241 96 1.0
113 97 1.0
119 97 -1.0
131 97 -1.0
252 97 1.0
114 98 1.0
120 98 -1.0
132 98 -1.0
253 98 1.0
121 99 4.45628648004517
123 99 -4.45628648004517
125 99 30.0
127 99 -30.0
129 99 15.0
131 99 -15.0
147 99 -1.0
166 99 -1.0
167 99 1.0
174 99 -1.0
270 99 1.0
271 99 -1.0
122 100 4.45628648004517
124 100 -4.45628648004517
126 100 30.0
128 100 -30.0
130 100 15.0
132 100 -15.0
147 100 1.0
167 100 -1.0
175 100 -1.0
272 100 1.0
273 100 -1.0
133 101 1.0
134 102 1.0
135 103 1.0
136 104 1.0
137 105 1.0
138 106 1.0
139 107 1.0
140 108 1.0
141 109 1.0
142 110 1.0

BCOORD
58
29 40.0
30 40.0
33 3.71357206670431
34 3.71357206670431
55 40.0
56 40.0
59 4.45628648004517
60 4.45628648004517
73 4.45628648004517
74 4.45628648004517
77 3.34221486003388
78 3.34221486003388
99 4.45628648004517
100 4.45628648004517
103 2.54515263975353
104 2.54515263975353
123 4.45628648004517
124 4.45628648004517
127 30.0
128 30.0
131 15.0
132 15.0
148 1.0
149 1.0
150 1.0
151 1.0
152 1.0
153 1.0
154 1.0
155 1.0
156 1.0
157 1.0
168 -1.0
169 -1.0
177 40.0
179 40.0
201 30.0
203 30.0
255 1.0
257 1.0
259 1.0
261 1.0
263 1.0
265 1.0
267 1.0
269 1.0
271 1.0
273 1.0
275 1.0
277 1.0
279 1.0
281 1.0
283 1.0
285 1.0
287 1.0
289 1.0
291 1.0
293 1.0
